nohup: ignoring input
original problem has 11923 variables (11923 bin, 0 int, 0 impl, 0 cont) and 15151 constraints
original problem has 1863 variables (1863 bin, 0 int, 0 impl, 0 cont) and 2212 constraints
original problem has 1031 variables (1031 bin, 0 int, 0 impl, 0 cont) and 1176 constraints
original problem has 2799 variables (2799 bin, 0 int, 0 impl, 0 cont) and 3420 constraints
original problem has 945 variables (945 bin, 0 int, 0 impl, 0 cont) and 1099 constraints
original problem has 8065 variables (8065 bin, 0 int, 0 impl, 0 cont) and 10215 constraints
original problem has 575 variables (575 bin, 0 int, 0 impl, 0 cont) and 615 constraints
original problem has 14034 variables (14034 bin, 0 int, 0 impl, 0 cont) and 17998 constraints
original problem has 5012 variables (5012 bin, 0 int, 0 impl, 0 cont) and 6317 constraints
original problem has 9987 variables (9987 bin, 0 int, 0 impl, 0 cont) and 12702 constraints
original problem has 1894 variables (1894 bin, 0 int, 0 impl, 0 cont) and 2223 constraints
original problem has 1678 variables (1678 bin, 0 int, 0 impl, 0 cont) and 2004 constraints
original problem has 1821 variables (1821 bin, 0 int, 0 impl, 0 cont) and 2155 constraints
original problem has 3836 variables (3836 bin, 0 int, 0 impl, 0 cont) and 4681 constraints
original problem has 1775 variables (1775 bin, 0 int, 0 impl, 0 cont) and 2106 constraints
original problem has 14328 variables (14328 bin, 0 int, 0 impl, 0 cont) and 18328 constraints
original problem has 1733 variables (1733 bin, 0 int, 0 impl, 0 cont) and 2056 constraints
original problem has 10044 variables (10044 bin, 0 int, 0 impl, 0 cont) and 12715 constraints
original problem has 1052 variables (1052 bin, 0 int, 0 impl, 0 cont) and 1208 constraints
original problem has 5042 variables (5042 bin, 0 int, 0 impl, 0 cont) and 6253 constraints
original problem has 10016 variables (10016 bin, 0 int, 0 impl, 0 cont) and 12694 constraints
original problem has 490 variables (490 bin, 0 int, 0 impl, 0 cont) and 518 constraints
original problem has 3701 variables (3701 bin, 0 int, 0 impl, 0 cont) and 4554 constraints
original problem has 3824 variables (3824 bin, 0 int, 0 impl, 0 cont) and 4661 constraints
original problem has 1094 variables (1094 bin, 0 int, 0 impl, 0 cont) and 1241 constraints
original problem has 2707 variables (2707 bin, 0 int, 0 impl, 0 cont) and 3277 constraints
original problem has 999 variables (999 bin, 0 int, 0 impl, 0 cont) and 1159 constraints
original problem has 3938 variables (3938 bin, 0 int, 0 impl, 0 cont) and 4788 constraints
original problem has 4955 variables (4955 bin, 0 int, 0 impl, 0 cont) and 6115 constraints
original problem has 10027 variables (10027 bin, 0 int, 0 impl, 0 cont) and 12720 constraints
original problem has 8136 variables (8136 bin, 0 int, 0 impl, 0 cont) and 10343 constraints
original problem has 1743 variables (1743 bin, 0 int, 0 impl, 0 cont) and 2015 constraints
original problem has 3778 variables (3778 bin, 0 int, 0 impl, 0 cont) and 4607 constraints
original problem has 4950 variables (4950 bin, 0 int, 0 impl, 0 cont) and 6158 constraints
original problem has 5190 variables (5190 bin, 0 int, 0 impl, 0 cont) and 6411 constraints
original problem has 11923 variables (11923 bin, 0 int, 0 impl, 0 cont) and 15151 constraints
original problem has 1863 variables (1863 bin, 0 int, 0 impl, 0 cont) and 2212 constraints
original problem has 1031 variables (1031 bin, 0 int, 0 impl, 0 cont) and 1176 constraints
original problem has 2799 variables (2799 bin, 0 int, 0 impl, 0 cont) and 3420 constraints
original problem has 945 variables (945 bin, 0 int, 0 impl, 0 cont) and 1099 constraints
original problem has 8065 variables (8065 bin, 0 int, 0 impl, 0 cont) and 10215 constraints
original problem has 575 variables (575 bin, 0 int, 0 impl, 0 cont) and 615 constraints
original problem has 14034 variables (14034 bin, 0 int, 0 impl, 0 cont) and 17998 constraints
original problem has 5012 variables (5012 bin, 0 int, 0 impl, 0 cont) and 6317 constraints
original problem has 9987 variables (9987 bin, 0 int, 0 impl, 0 cont) and 12702 constraints
original problem has 1894 variables (1894 bin, 0 int, 0 impl, 0 cont) and 2223 constraints
original problem has 1678 variables (1678 bin, 0 int, 0 impl, 0 cont) and 2004 constraints
original problem has 1821 variables (1821 bin, 0 int, 0 impl, 0 cont) and 2155 constraints
original problem has 3836 variables (3836 bin, 0 int, 0 impl, 0 cont) and 4681 constraints
original problem has 1775 variables (1775 bin, 0 int, 0 impl, 0 cont) and 2106 constraints
original problem has 14328 variables (14328 bin, 0 int, 0 impl, 0 cont) and 18328 constraints
original problem has 1733 variables (1733 bin, 0 int, 0 impl, 0 cont) and 2056 constraints
original problem has 10044 variables (10044 bin, 0 int, 0 impl, 0 cont) and 12715 constraints
original problem has 1052 variables (1052 bin, 0 int, 0 impl, 0 cont) and 1208 constraints
original problem has 5042 variables (5042 bin, 0 int, 0 impl, 0 cont) and 6253 constraints
original problem has 10016 variables (10016 bin, 0 int, 0 impl, 0 cont) and 12694 constraints
original problem has 490 variables (490 bin, 0 int, 0 impl, 0 cont) and 518 constraints
original problem has 3701 variables (3701 bin, 0 int, 0 impl, 0 cont) and 4554 constraints
original problem has 3824 variables (3824 bin, 0 int, 0 impl, 0 cont) and 4661 constraints
original problem has 1094 variables (1094 bin, 0 int, 0 impl, 0 cont) and 1241 constraints
original problem has 2707 variables (2707 bin, 0 int, 0 impl, 0 cont) and 3277 constraints
original problem has 999 variables (999 bin, 0 int, 0 impl, 0 cont) and 1159 constraints
original problem has 3938 variables (3938 bin, 0 int, 0 impl, 0 cont) and 4788 constraints
original problem has 4955 variables (4955 bin, 0 int, 0 impl, 0 cont) and 6115 constraints
original problem has 10027 variables (10027 bin, 0 int, 0 impl, 0 cont) and 12720 constraints
original problem has 8136 variables (8136 bin, 0 int, 0 impl, 0 cont) and 10343 constraints
original problem has 1743 variables (1743 bin, 0 int, 0 impl, 0 cont) and 2015 constraints
original problem has 3778 variables (3778 bin, 0 int, 0 impl, 0 cont) and 4607 constraints
original problem has 4950 variables (4950 bin, 0 int, 0 impl, 0 cont) and 6158 constraints
original problem has 5190 variables (5190 bin, 0 int, 0 impl, 0 cont) and 6411 constraints
/home/liudefen/projects/ML4LocalBranch_extend/execute_heuristics.py:763: RuntimeWarning: invalid value encountered in double_scalars
  primal_int_reinforce_ave = primal_int_reinforces.sum() / len(
/home/liudefen/projects/ML4LocalBranch_extend/execute_heuristics.py:775: RuntimeWarning: invalid value encountered in double_scalars
  primal_gap_final_reinforce_ave = primal_gap_final_reinforces.sum() / len(
/home/liudefen/projects/ML4LocalBranch_extend/execute_heuristics.py:763: RuntimeWarning: invalid value encountered in double_scalars
  primal_int_reinforce_ave = primal_int_reinforces.sum() / len(
/home/liudefen/projects/ML4LocalBranch_extend/execute_heuristics.py:775: RuntimeWarning: invalid value encountered in double_scalars
  primal_gap_final_reinforce_ave = primal_gap_final_reinforces.sum() / len(
generalized_independentset-small
firstsol
symmetric
seed: 0
cpu
generalized_independentset
firstsolSolution
scip-baseline primal integral:  38.536933958342956
scip-lb-baseline primal integral:  45.3083936251391
scip-lb-regression primal integral:  42.17039117474352
scip-lb-rl primal integral:  43.875844516500834
scip-lb-regression-rl primal integral:  40.7866963150152
rl primal integral:  nan


scip-baseline primal gap:  0.6871598074157859
scip-lb-baseline primal gap:  1.4376997252571753
scip-lb-regression primal gap:  0.508705426931068
scip-lb-rl primal gap:  1.169125230454499
scip-lb-regression-rl primal gap:  0.5687320723547515
rl primal gap:  nan
seed mcts:  0
seed mcts:  0
generalized_independentset-large
firstsol
symmetric
seed: 0
cpu
generalized_independentset-small
rootsol
symmetric
seed: 0
cpu
generalized_independentset
rootsolSolution
scip-baseline primal integral:  37.24723991714818
scip-lb-baseline primal integral:  45.04714116796287
scip-lb-regression primal integral:  41.217278753226616
scip-lb-rl primal integral:  45.69878679121779
scip-lb-regression-rl primal integral:  39.702178299899224
rl primal integral:  nan


scip-baseline primal gap:  0.6548079320598292
scip-lb-baseline primal gap:  1.4329492831288912
scip-lb-regression primal gap:  0.732971216266935
scip-lb-rl primal gap:  1.5428078715407252
scip-lb-regression-rl primal gap:  0.743542194974811
rl primal gap:  nan
seed mcts:  0
seed mcts:  0
generalized_independentset-large
rootsol
symmetric
seed: 0
cpu
